<?xml version="1.0" encoding="UTF-8"?><osil xmlns="os.optimizationservices.org"   xmlns:xsi="http://www.w3.org/2001/XMLSchema-instance" xsi:schemaLocation="os.optimizationservices.org http://www.optimizationservices.org/schemas/2.0/OSiL.xsd" ><instanceHeader><name>pointpack04</name></instanceHeader><instanceData><variables numberOfVariables="9"><var name="x1" lb=".5" ub="1"/><var name="x2" lb=".5" ub="1"/><var name="x3" ub="1"/><var name="x4" ub="1"/><var name="x5" ub="1"/><var name="x6" ub="1"/><var name="x7" ub="1"/><var name="x8" ub="1"/><var name="objvar" lb="-INF"/></variables><objectives numberOfObjectives="1"><obj maxOrMin="max" name="e6" numberOfObjCoef="1"><coef idx="8">1</coef></obj></objectives><constraints numberOfConstraints="10"><con name="e1" ub="0"/><con name="e2" ub="0"/><con name="e3" ub="0"/><con name="e4" ub="0"/><con name="e5" ub="0"/><con name="e6" ub="0"/><con name="e7" ub="0"/><con name="e8" ub="0"/><con name="e9" ub="0"/><con name="e10" ub="0"/></constraints><linearConstraintCoefficients numberOfValues="14"><start><el mult="7" incr="1">0</el><el mult="4" incr="2">8</el></start><colIdx><el mult="6">8</el><el mult="2" incr="1">4</el><el mult="2" incr="1">0</el><el mult="2" incr="1">1</el><el mult="2" incr="1">2</el></colIdx><value><el mult="6">1</el><el>-1</el><el>1</el><el>-1</el><el>1</el><el>-1</el><el>1</el><el>-1</el><el>1</el></value></linearConstraintCoefficients><quadraticCoefficients  numberOfQuadraticTerms="36" ><qTerm  idx="0"  idxOne="0"  idxTwo="0"  coef="-1"/><qTerm  idx="0"  idxOne="0"  idxTwo="1"  coef="2"/><qTerm  idx="0"  idxOne="1"  idxTwo="1"  coef="-1"/><qTerm  idx="0"  idxOne="4"  idxTwo="4"  coef="-1"/><qTerm  idx="0"  idxOne="4"  idxTwo="5"  coef="2"/><qTerm  idx="0"  idxOne="5"  idxTwo="5"  coef="-1"/><qTerm  idx="1"  idxOne="0"  idxTwo="0"  coef="-1"/><qTerm  idx="1"  idxOne="0"  idxTwo="2"  coef="2"/><qTerm  idx="1"  idxOne="2"  idxTwo="2"  coef="-1"/><qTerm  idx="1"  idxOne="4"  idxTwo="4"  coef="-1"/><qTerm  idx="1"  idxOne="4"  idxTwo="6"  coef="2"/><qTerm  idx="1"  idxOne="6"  idxTwo="6"  coef="-1"/><qTerm  idx="2"  idxOne="0"  idxTwo="0"  coef="-1"/><qTerm  idx="2"  idxOne="0"  idxTwo="3"  coef="2"/><qTerm  idx="2"  idxOne="3"  idxTwo="3"  coef="-1"/><qTerm  idx="2"  idxOne="4"  idxTwo="4"  coef="-1"/><qTerm  idx="2"  idxOne="4"  idxTwo="7"  coef="2"/><qTerm  idx="2"  idxOne="7"  idxTwo="7"  coef="-1"/><qTerm  idx="3"  idxOne="1"  idxTwo="1"  coef="-1"/><qTerm  idx="3"  idxOne="1"  idxTwo="2"  coef="2"/><qTerm  idx="3"  idxOne="2"  idxTwo="2"  coef="-1"/><qTerm  idx="3"  idxOne="5"  idxTwo="5"  coef="-1"/><qTerm  idx="3"  idxOne="5"  idxTwo="6"  coef="2"/><qTerm  idx="3"  idxOne="6"  idxTwo="6"  coef="-1"/><qTerm  idx="4"  idxOne="1"  idxTwo="1"  coef="-1"/><qTerm  idx="4"  idxOne="1"  idxTwo="3"  coef="2"/><qTerm  idx="4"  idxOne="3"  idxTwo="3"  coef="-1"/><qTerm  idx="4"  idxOne="5"  idxTwo="5"  coef="-1"/><qTerm  idx="4"  idxOne="5"  idxTwo="7"  coef="2"/><qTerm  idx="4"  idxOne="7"  idxTwo="7"  coef="-1"/><qTerm  idx="5"  idxOne="2"  idxTwo="2"  coef="-1"/><qTerm  idx="5"  idxOne="2"  idxTwo="3"  coef="2"/><qTerm  idx="5"  idxOne="3"  idxTwo="3"  coef="-1"/><qTerm  idx="5"  idxOne="6"  idxTwo="6"  coef="-1"/><qTerm  idx="5"  idxOne="6"  idxTwo="7"  coef="2"/><qTerm  idx="5"  idxOne="7"  idxTwo="7"  coef="-1"/></quadraticCoefficients></instanceData></osil>
